
Gurobi 11.0.3 (linux64) logging started Sat Nov 23 08:48:57 2024

Set parameter LogFile to value "/home/yihong/Coding/OR_SUC/SUC_results_bigM100000_thread4/case24_ieee_rts_theta0.5_epsilon0.05_gurobi_seed910000_num_gen100_N_WDR150_load_scaling_factor1_proposed_T24quadra_cost.txt"
Set parameter TimeLimit to value 3600
Gurobi Optimizer version 11.0.3 build v11.0.3rc0 (linux64 - "Ubuntu 20.04.6 LTS")

CPU model: AMD EPYC 7532 32-Core Processor, instruction set [SSE2|AVX|AVX2]
Thread count: 64 physical cores, 128 logical processors, using up to 4 threads

Optimize a model with 61352 rows, 29911 columns and 1720734 nonzeros
Model fingerprint: 0xef61f5f2
Model has 2400 quadratic constraints
Variable types: 27511 continuous, 2400 integer (2400 binary)
Coefficient statistics:
  Matrix range     [3e-04, 3e+03]
  QMatrix range    [2e-03, 8e-03]
  QLMatrix range   [4e-01, 6e+01]
  Objective range  [1e+00, 1e+00]
  Bounds range     [1e+00, 1e+00]
  RHS range        [1e+00, 9e+03]
Presolve removed 50592 rows and 12677 columns
Presolve time: 0.50s
Presolved: 10760 rows, 17234 columns, 65095 nonzeros
Presolved model has 2400 quadratic constraint(s)
Variable types: 14834 continuous, 2400 integer (2400 binary)

Root relaxation: objective 5.390251e+04, 8889 iterations, 0.31 seconds (0.47 work units)

    Nodes    |    Current Node    |     Objective Bounds      |     Work
 Expl Unexpl |  Obj  Depth IntInf | Incumbent    BestBd   Gap | It/Node Time

     0     0 53902.5100    0    -          - 53902.5100      -     -    1s
     0     0 375890.980    0  802          - 375890.980      -     -    1s
     0     0 624632.097    0  837          - 624632.097      -     -    2s
     0     0 624676.690    0  387          - 624676.690      -     -    2s
     0     0 624942.002    0  212          - 624942.002      -     -    2s
     0     0 624944.013    0  212          - 624944.013      -     -    2s
     0     0 624944.013    0  212          - 624944.013      -     -    2s
     0     0 624945.350    0  212          - 624945.350      -     -    2s
     0     2 624945.350    0  212          - 624945.350      -     -    4s
    44    60 625046.374   13  223          - 624948.756      -  22.5    5s
H  546   335                    625044.69930 624948.756  0.02%  15.1    8s
*  546   335             157    625044.69930 624948.756  0.02%  15.1    8s

Cutting planes:
  Gomory: 183
  Implied bound: 397
  MIR: 86
  Flow cover: 373
  RLT: 216

Explored 623 nodes (33645 simplex iterations) in 8.54 seconds (12.40 work units)
Thread count was 4 (of 128 available processors)

Solution count 2: 625045 625045 

Optimal solution found (tolerance 1.00e-03)
Warning: max constraint violation (1.2435e-07) exceeds tolerance
Best objective 6.250446993011e+05, best bound 6.249487557341e+05, gap 0.0153%
